
<<< setup

Version identifier: 22.1.1.0 | 2022-11-27 | 9160aff4d
Tried aggregator 1 time.
LP Presolve eliminated 110 rows and 77 columns.
Reduced LP has 3 rows, 20 columns, and 20 nonzeros.
Presolve time = 0.00 sec. (0.05 ticks)

Iteration log . . .
Iteration:     1   Dual objective     =          1379.653704
main returns 0

<<< main


<<< done

